NAME: sim-grid-B-55
TYPE: TSP
COMMENT: Semi-regular Grid
DIMENSION: 55
EDGE_WEIGHT_TYPE: EUC_2D
NODE_COORD_SECTION
1 50 100
2 250 100
3 450 100
4 650 100
5 850 100
6 1050 100
7 1250 100
8 1450 100
9 50 200
10 250 200
11 450 200
12 650 200
13 1050 200
14 1250 200
15 1450 200
16 100 350
17 150 350
18 350 350
19 400 350
20 600 350
21 650 350
22 850 350
23 1100 350
24 1150 350
25 1350 350
26 1400 350
27 100 450
28 150 450
29 350 450
30 400 450
31 600 450
32 650 450
33 850 450
34 900 450
35 1150 450
36 1400 450
37 50 600
38 150 600
39 450 600
40 650 600
41 750 600
42 950 600
43 1050 600
44 1250 600
45 1350 600
46 1550 600
47 150 700
48 350 700
49 450 700
50 650 700
51 750 700
52 1050 700
53 1250 700
54 1350 700
55 1550 700
EOF
